data/instances/vrp_files/train_77.vrp
NAME : 77
COMMENT : Generated instance No. 77
TYPE : CVRP
DIMENSION : 21
EDGE_WEIGHT_TYPE : EUC_2D
CAPACITY : 30
NODE_COORD_SECTION
 1 121 588
 2 655 198
 3 315 224
 4 69 827
 5 254 473
 6 43 699
 7 330 744
 8 412 195
 9 513 130
 10 440 317
 11 911 60
 12 694 182
 13 319 415
 14 908 242
 15 91 318
 16 104 128
 17 573 60
 18 30 714
 19 361 125
 20 253 642
 21 275 494
DEMAND_SECTION
1 0
2 2
3 3
4 7
5 3
6 9
7 6
8 3
9 9
10 1
11 10
12 3
13 1
14 2
15 8
16 7
17 2
18 2
19 9
20 6
21 5
DEPOT_SECTION
 1
 -1
EOF